0 0 0 0
0 1 0 0
0 2 0 0
0 3 1 0
0 4 0 5
0 5 0 9
0 6 0 4
0 7 1 4
0 8 1 5
0 9 0 11
0 10 0 11
0 11 0 7
0 12 0 14
0 13 0 23
0 14 0 10
0 15 0 8
0 16 0 10
0 17 2 8
0 18 0 20
0 19 0 17
0 20 0 26
0 21 1 19
0 22 0 16
0 23 1 20
0 24 0 25
0 25 0 26
0 26 0 13
0 27 1 19
0 28 0 27
0 29 0 28
0 30 2 25
0 31 0 32
